2622.62 0
0 62 56 38 47 48 42 37 32 0 
0 24 90 92 96 91 0 
0 64 65 41 39 28 29 44 58 67 30 36 46 49 0 
0 11 3 4 7 15 12 0 
0 52 51 76 80 57 66 83 82 81 85 13 27 0 
0 1 2 9 100 21 72 70 73 75 74 22 0 
0 5 10 95 98 94 88 93 0 
0 53 35 54 45 61 14 19 0 
0 25 55 79 78 77 71 69 0 
0 16 8 6 87 60 40 33 31 34 43 63 59 68 50 84 86 89 97 17 0 
0 26 20 18 99 23 0 
